unsat
(:max-memory          18.43
 :memory              18.33
 :nlsat-arith-var     2
 :nlsat-atoms         8
 :nlsat-bool-var      1
 :nlsat-clauses       8
 :nlsat-conflicts     1
 :nlsat-propagations  7
 :nlsat-stages        2
 :num-allocs          51376
 :rlimit-count        1745
 :solve-eqs-elim-vars 1
 :solve-eqs-steps     6
 :time                0.00
 :total-time          0.01)
